data;

param w := 15;
param n := 25;
param min_h := 40;
param max_h := 58;

set BLOCKS := 1 2 3 4 5 6 7 8 9 10 11 12 13 14 15 16 17 18 19 20 21 22 23 24 25 ;

param:	width	height :=
	1	7	12
	2	6	12
	3	6	9
	4	7	7
	5	3	16
	6	3	16
	7	3	10
	8	3	10
	9	3	9
	10	2	12
	11	3	5
	12	3	5
	13	2	7
	14	2	7
	15	2	6
	16	2	5
	17	2	5
	18	2	4
	19	1	7
	20	1	6
	21	2	3
	22	1	5
	23	1	5
	24	1	4
	25	1	3;